100
32
22
7
15
23
8
25
19
11
25
2
4
14
15
5
9
4
12
6
31
7
30
13
12
19
11
14
20
15
26
15
31
21
11
19
10
3
19
29
26
7
27
11
5
11
2
2
32
27
15
17
18
23
5
17
31
20
13
18
2
13
27
32
31
1
17
29
21
17
23
17
5
28
21
16
18
19
4
8
21
8
30
1
17
4
8
22
1
27
3
10
10
18
32
11
18
2
31
26
25
13